(set-info :smt-lib-version 2.6)
(set-info :category "crafted")
(set-logic QF_FFA)
(define-sort FF0 () (_ FiniteField 52435875175126190479447740508185965837690552500527637822603658699938581184513))
(declare-fun is_zero_n35_alt () FF0)
(declare-fun mul_n44_alt () FF0)
(declare-fun is_zero_n12_alt () FF0)
(declare-fun is_zero_n47_alt () FF0)
(declare-fun mul_n50_alt () FF0)
(declare-fun mul_n21_alt () FF0)
(declare-fun mul_n56_alt () FF0)
(declare-fun mul_n59_alt () FF0)
(declare-fun mul_n62_alt () FF0)
(declare-fun mul_n42_alt () FF0)
(declare-fun mul_n19_alt () FF0)
(declare-fun is_zero_n54_alt () FF0)
(declare-fun mul_n63_alt () FF0)
(declare-fun mul_n43_alt () FF0)
(declare-fun mul_n55_alt () FF0)
(declare-fun mul_n20_alt () FF0)
(declare-fun mul_n58_alt () FF0)
(declare-fun mul_n61_alt () FF0)
(declare-fun mul_n29_alt () FF0)
(declare-fun mul_n64_alt () FF0)
(declare-fun return_n3_alt () FF0)
(declare-fun is_zero_inv_n65_alt () FF0)
(declare-fun mul_n22_alt () FF0)
(declare-fun c_n2_alt () FF0)
(declare-fun mul_n24_alt () FF0)
(declare-fun mul_n7_alt () FF0)
(declare-fun f_n4_alt () FF0)
(declare-fun mul_n23_alt () FF0)
(declare-fun mul_n10_alt () FF0)
(declare-fun mul_n27_alt () FF0)
(declare-fun mul_n14_alt () FF0)
(declare-fun mul_n31_alt () FF0)
(declare-fun mul_n30_alt () FF0)
(declare-fun mul_n32_alt () FF0)
(declare-fun is_zero_n17_alt () FF0)
(declare-fun mul_n33_alt () FF0)
(declare-fun mul_n57_alt () FF0)
(declare-fun mul_n60_alt () FF0)
(declare-fun mul_n41_alt () FF0)
(declare-fun mul_n18_alt () FF0)
(declare-fun mul_n8_alt () FF0)
(declare-fun is_zero_n40_alt () FF0)
(declare-fun mul_n48_alt () FF0)
(declare-fun mul_n25_alt () FF0)
(declare-fun mul_n52_alt () FF0)
(declare-fun mul_n36_alt () FF0)
(declare-fun is_zero_inv_n53_alt () FF0)
(declare-fun mul_n51_alt () FF0)
(declare-fun mul_n38_alt () FF0)
(declare-fun mul_n37_alt () FF0)
(declare-fun mul_n49_alt () FF0)
(declare-fun mul_n45_alt () FF0)
(declare-fun is_zero_inv_n46_alt () FF0)
(declare-fun a_n6_alt () FF0)
(declare-fun mul_n9_alt () FF0)
(declare-fun mul_n13_alt () FF0)
(declare-fun b_n5_alt () FF0)
(declare-fun is_zero_inv_n39_alt () FF0)
(declare-fun mul_n15_alt () FF0)
(declare-fun is_zero_inv_n34_alt () FF0)
(declare-fun mul_n28_alt () FF0)
(declare-fun mul_n26_alt () FF0)
(declare-fun d_n1_alt () FF0)
(declare-fun e_n0_alt () FF0)
(declare-fun is_zero_inv_n16_alt () FF0)
(declare-fun is_zero_inv_n11_alt () FF0)
(declare-fun is_zero_n35 () FF0)
(declare-fun mul_n44 () FF0)
(declare-fun is_zero_n12 () FF0)
(declare-fun is_zero_n47 () FF0)
(declare-fun mul_n50 () FF0)
(declare-fun mul_n21 () FF0)
(declare-fun mul_n56 () FF0)
(declare-fun mul_n59 () FF0)
(declare-fun mul_n62 () FF0)
(declare-fun mul_n42 () FF0)
(declare-fun mul_n19 () FF0)
(declare-fun is_zero_n54 () FF0)
(declare-fun mul_n63 () FF0)
(declare-fun mul_n43 () FF0)
(declare-fun mul_n55 () FF0)
(declare-fun mul_n20 () FF0)
(declare-fun mul_n58 () FF0)
(declare-fun mul_n61 () FF0)
(declare-fun mul_n29 () FF0)
(declare-fun mul_n64 () FF0)
(declare-fun return_n3 () FF0)
(declare-fun is_zero_inv_n65 () FF0)
(declare-fun mul_n22 () FF0)
(declare-fun c_n2 () FF0)
(declare-fun mul_n24 () FF0)
(declare-fun mul_n7 () FF0)
(declare-fun f_n4 () FF0)
(declare-fun mul_n23 () FF0)
(declare-fun mul_n10 () FF0)
(declare-fun mul_n27 () FF0)
(declare-fun mul_n14 () FF0)
(declare-fun mul_n31 () FF0)
(declare-fun mul_n30 () FF0)
(declare-fun mul_n32 () FF0)
(declare-fun is_zero_n17 () FF0)
(declare-fun mul_n33 () FF0)
(declare-fun mul_n57 () FF0)
(declare-fun mul_n60 () FF0)
(declare-fun mul_n41 () FF0)
(declare-fun mul_n18 () FF0)
(declare-fun mul_n8 () FF0)
(declare-fun is_zero_n40 () FF0)
(declare-fun mul_n48 () FF0)
(declare-fun mul_n25 () FF0)
(declare-fun mul_n52 () FF0)
(declare-fun mul_n36 () FF0)
(declare-fun is_zero_inv_n53 () FF0)
(declare-fun mul_n51 () FF0)
(declare-fun mul_n38 () FF0)
(declare-fun mul_n37 () FF0)
(declare-fun mul_n49 () FF0)
(declare-fun mul_n45 () FF0)
(declare-fun is_zero_inv_n46 () FF0)
(declare-fun a_n6 () FF0)
(declare-fun mul_n9 () FF0)
(declare-fun mul_n13 () FF0)
(declare-fun b_n5 () FF0)
(declare-fun is_zero_inv_n39 () FF0)
(declare-fun mul_n15 () FF0)
(declare-fun is_zero_inv_n34 () FF0)
(declare-fun mul_n28 () FF0)
(declare-fun mul_n26 () FF0)
(declare-fun d_n1 () FF0)
(declare-fun e_n0 () FF0)
(declare-fun is_zero_inv_n16 () FF0)
(declare-fun is_zero_inv_n11 () FF0)
(assert 
  (let ((let0 (as ff0 FF0)))
  (let ((let1 (as ff9 FF0)))
  (let ((let2 (as ff52435875175126190479447740508185965837690552500527637822603658699938581184512 FF0)))
  (let ((let3 is_zero_n35_alt))
  (let ((let4 (ff.mul let3 let2)))
  (let ((let5 mul_n44_alt))
  (let ((let6 (ff.mul let5 let2)))
  (let ((let7 is_zero_n12_alt))
  (let ((let8 is_zero_n47_alt))
  (let ((let9 (ff.mul let8 let2)))
  (let ((let10 mul_n50_alt))
  (let ((let11 (ff.mul let10 let2)))
  (let ((let12 mul_n21_alt))
  (let ((let13 (ff.mul let12 let2)))
  (let ((let14 mul_n56_alt))
  (let ((let15 (ff.mul let14 let2)))
  (let ((let16 mul_n59_alt))
  (let ((let17 (ff.mul let16 let2)))
  (let ((let18 (as ff2 FF0)))
  (let ((let19 mul_n62_alt))
  (let ((let20 (ff.mul let19 let18)))
  (let ((let21 mul_n42_alt))
  (let ((let22 mul_n19_alt))
  (let ((let23 is_zero_n54_alt))
  (let ((let24 mul_n63_alt))
  (let ((let25 (ff.mul let24 let2)))
  (let ((let26 mul_n43_alt))
  (let ((let27 mul_n55_alt))
  (let ((let28 (ff.mul let27 let2)))
  (let ((let29 mul_n20_alt))
  (let ((let30 (ff.mul let29 let2)))
  (let ((let31 mul_n58_alt))
  (let ((let32 (ff.mul let31 let2)))
  (let ((let33 mul_n61_alt))
  (let ((let34 (ff.mul let33 let2)))
  (let ((let35 (as ff52435875175126190479447740508185965837690552500527637822603658699938581184511 FF0)))
  (let ((let36 mul_n29_alt))
  (let ((let37 (ff.mul let36 let35)))
  (let ((let38 mul_n64_alt))
  (let ((let39 (ff.mul let38 let2)))
  (let ((let40 (ff.add let39 let37 let34 let32 let30 let28 let26 let25 let23 let22 let21 let20 let17 let15 let13 let11 let9 let7 let6 let4 let1)))
  (let ((let41 return_n3_alt))
  (let ((let42 (ff.mul let41 let40)))
  (let ((let43 (= let42 let0)))
  (let ((let44 (as ff1 FF0)))
  (let ((let45 (ff.mul let41 let2)))
  (let ((let46 (ff.add let45 let44)))
  (let ((let47 is_zero_inv_n65_alt))
  (let ((let48 (ff.mul let47 let40)))
  (let ((let49 (= let48 let46)))
  (let ((let50 mul_n22_alt))
  (let ((let51 (ff.mul let50 let2)))
  (let ((let52 c_n2_alt))
  (let ((let53 mul_n24_alt))
  (let ((let54 (ff.mul let53 let2)))
  (let ((let55 mul_n7_alt))
  (let ((let56 f_n4_alt))
  (let ((let57 (ff.mul let56 let2)))
  (let ((let58 mul_n23_alt))
  (let ((let59 (ff.mul let58 let2)))
  (let ((let60 mul_n10_alt))
  (let ((let61 (ff.add let60 let59 let57 let55 let54 let52 let51 let4 let44)))
  (let ((let62 mul_n27_alt))
  (let ((let63 (ff.mul let62 let2)))
  (let ((let64 mul_n14_alt))
  (let ((let65 (ff.mul let64 let2)))
  (let ((let66 mul_n31_alt))
  (let ((let67 (ff.mul let66 let2)))
  (let ((let68 mul_n30_alt))
  (let ((let69 (ff.mul let68 let2)))
  (let ((let70 (ff.mul let36 let2)))
  (let ((let71 mul_n32_alt))
  (let ((let72 (ff.add let71 let70 let69 let67 let52 let65 let63 let18)))
  (let ((let73 (ff.mul let72 let61)))
  (let ((let74 (= let73 let38)))
  (let ((let75 (ff.add let70 let19 let44)))
  (let ((let76 (ff.add let37 let20 let18)))
  (let ((let77 (ff.mul let76 let75)))
  (let ((let78 (= let77 let24)))
  (let ((let79 is_zero_n17_alt))
  (let ((let80 mul_n33_alt))
  (let ((let81 (ff.add let36 let52 let80 let79 let35)))
  (let ((let82 (ff.mul let72 let81)))
  (let ((let83 (= let82 let19)))
  (let ((let84 (ff.add let70 let52 let13 let7 let30 let69 let44)))
  (let ((let85 mul_n57_alt))
  (let ((let86 (ff.mul let85 let2)))
  (let ((let87 mul_n60_alt))
  (let ((let88 (ff.mul let7 let2)))
  (let ((let89 (ff.mul let52 let2)))
  (let ((let90 (ff.mul let55 let2)))
  (let ((let91 (ff.mul let60 let2)))
  (let ((let92 (ff.add let91 let58 let56 let90 let89 let88 let87 let86 let50 let44)))
  (let ((let93 (ff.mul let92 let84)))
  (let ((let94 (= let93 let33)))
  (let ((let95 (ff.add let70 let60 let59 let57 let55 let52 let7 let85 let51)))
  (let ((let96 mul_n41_alt))
  (let ((let97 mul_n18_alt))
  (let ((let98 mul_n8_alt))
  (let ((let99 is_zero_n40_alt))
  (let ((let100 (ff.add let99 let98 let97 let89 let90 let96)))
  (let ((let101 (ff.mul let100 let95)))
  (let ((let102 (= let101 let87)))
  (let ((let103 (ff.mul let79 let2)))
  (let ((let104 (ff.mul let80 let2)))
  (let ((let105 (ff.add let104 let103 let89 let18)))
  (let ((let106 (ff.add let62 let64 let66 let2)))
  (let ((let107 (ff.mul let106 let105)))
  (let ((let108 (= let107 let16)))
  (let ((let109 (ff.add let54 let60 let59 let52 let57 let51 let55 let44)))
  (let ((let110 (ff.add let91 let58 let56 let90 let89 let88 let86 let50 let44)))
  (let ((let111 (ff.mul let110 let109)))
  (let ((let112 (= let111 let31)))
  (let ((let113 (ff.add let91 let58 let89 let56 let50 let90)))
  (let ((let114 (ff.mul let7 let35)))
  (let ((let115 (ff.add let114 let18)))
  (let ((let116 (ff.mul let115 let113)))
  (let ((let117 (= let116 let85)))
  (let ((let118 (ff.add let9 let44)))
  (let ((let119 (ff.mul let27 let35)))
  (let ((let120 (ff.add let119 let18)))
  (let ((let121 (ff.mul let120 let118)))
  (let ((let122 (= let121 let14)))
  (let ((let123 mul_n48_alt))
  (let ((let124 (ff.mul let123 let2)))
  (let ((let125 (ff.add let124 let89 let50 let44)))
  (let ((let126 (ff.mul let21 let2)))
  (let ((let127 (ff.add let126 let44)))
  (let ((let128 (ff.mul let127 let125)))
  (let ((let129 (= let128 let27)))
  (let ((let130 mul_n25_alt))
  (let ((let131 (ff.mul let130 let2)))
  (let ((let132 (as ff3 FF0)))
  (let ((let133 (ff.mul let50 let132)))
  (let ((let134 (ff.mul let52 let35)))
  (let ((let135 mul_n52_alt))
  (let ((let136 (ff.mul let56 let18)))
  (let ((let137 mul_n36_alt))
  (let ((let138 (ff.mul let58 let18)))
  (let ((let139 (ff.mul let55 let35)))
  (let ((let140 (ff.mul let60 let35)))
  (let ((let141 (ff.add let140 let139 let138 let137 let136 let135 let53 let134 let9 let99 let96 let133 let131 let18)))
  (let ((let142 (ff.mul let23 let141)))
  (let ((let143 (= let142 let0)))
  (let ((let144 (ff.mul let23 let2)))
  (let ((let145 (ff.add let144 let44)))
  (let ((let146 is_zero_inv_n53_alt))
  (let ((let147 (ff.mul let146 let141)))
  (let ((let148 (= let147 let145)))
  (let ((let149 (as ff52435875175126190479447740508185965837690552500527637822603658699938581184510 FF0)))
  (let ((let150 mul_n51_alt))
  (let ((let151 mul_n38_alt))
  (let ((let152 mul_n37_alt))
  (let ((let153 (ff.mul let71 let2)))
  (let ((let154 (ff.add let153 let36 let64 let68 let62 let152 let89 let66 let8 let151 let150 let149)))
  (let ((let155 (ff.add let153 let36 let64 let68 let62 let152 let89 let66 let151 let150 let35)))
  (let ((let156 (ff.mul let155 let154)))
  (let ((let157 (= let156 let135)))
  (let ((let158 (ff.mul let151 let2)))
  (let ((let159 (ff.mul let152 let2)))
  (let ((let160 (ff.mul let52 let18)))
  (let ((let161 (ff.mul let97 let2)))
  (let ((let162 (ff.mul let98 let2)))
  (let ((let163 (ff.add let71 let70 let55 let65 let69 let162 let63 let161 let160 let159 let67 let158 let18)))
  (let ((let164 (ff.add let11 let44)))
  (let ((let165 (ff.mul let164 let163)))
  (let ((let166 (= let165 let150)))
  (let ((let167 (ff.add let88 let12 let29)))
  (let ((let168 mul_n49_alt))
  (let ((let169 (ff.mul let168 let167)))
  (let ((let170 (= let169 let10)))
  (let ((let171 (ff.add let70 let69 let52 let44)))
  (let ((let172 (ff.mul let125 let171)))
  (let ((let173 (= let172 let168)))
  (let ((let174 (ff.add let134 let18)))
  (let ((let175 (ff.mul let174 let50)))
  (let ((let176 (= let175 let123)))
  (let ((let177 mul_n45_alt))
  (let ((let178 (ff.add let36 let177 let60 let30 let59 let68 let63 let54 let57 let55 let51 let3 let132)))
  (let ((let179 (ff.mul let8 let178)))
  (let ((let180 (= let179 let0)))
  (let ((let181 is_zero_inv_n46_alt))
  (let ((let182 (ff.mul let181 let178)))
  (let ((let183 (= let182 let118)))
  (let ((let184 (ff.add let36 let89 let68 let4)))
  (let ((let185 (ff.add let57 let52 let55)))
  (let ((let186 (ff.mul let185 let184)))
  (let ((let187 (= let186 let177)))
  (let ((let188 (ff.add let98 let97 let89 let90 let44)))
  (let ((let189 (ff.mul let188 let29)))
  (let ((let190 (= let189 let5)))
  (let ((let191 (ff.mul let22 let2)))
  (let ((let192 (ff.add let191 let44)))
  (let ((let193 (ff.mul let21 let35)))
  (let ((let194 (ff.add let193 let18)))
  (let ((let195 (ff.mul let194 let192)))
  (let ((let196 (= let195 let26)))
  (let ((let197 (ff.mul let100 let79)))
  (let ((let198 (= let197 let21)))
  (let ((let199 (ff.add let162 let161 let52 let55)))
  (let ((let200 (ff.mul let99 let35)))
  (let ((let201 (ff.add let200 let18)))
  (let ((let202 (ff.mul let201 let199)))
  (let ((let203 (= let202 let96)))
  (let ((let204 a_n6_alt))
  (let ((let205 mul_n9_alt))
  (let ((let206 (ff.mul let205 let2)))
  (let ((let207 (ff.mul let137 let18)))
  (let ((let208 mul_n13_alt))
  (let ((let209 (ff.mul let50 let18)))
  (let ((let210 b_n5_alt))
  (let ((let211 (ff.mul let210 let2)))
  (let ((let212 (ff.add let70 let138 let30 let79 let64 let152 let66 let211 let131 let209 let208 let140 let139 let207 let136 let80 let62 let69 let13 let7 let206 let151 let204 let132)))
  (let ((let213 (ff.mul let99 let212)))
  (let ((let214 (= let213 let0)))
  (let ((let215 (ff.mul let99 let2)))
  (let ((let216 (ff.add let215 let44)))
  (let ((let217 is_zero_inv_n39_alt))
  (let ((let218 (ff.mul let217 let212)))
  (let ((let219 (= let218 let216)))
  (let ((let220 (ff.add let159 let44)))
  (let ((let221 (as ff4 FF0)))
  (let ((let222 (ff.mul let62 let35)))
  (let ((let223 (ff.mul let64 let35)))
  (let ((let224 (ff.mul let66 let35)))
  (let ((let225 (ff.mul let68 let35)))
  (let ((let226 (ff.mul let71 let18)))
  (let ((let227 (ff.add let226 let37 let225 let224 let160 let223 let222 let221)))
  (let ((let228 (ff.mul let227 let220)))
  (let ((let229 (= let228 let151)))
  (let ((let230 (ff.add let36 let68 let89)))
  (let ((let231 (ff.mul let230 let130)))
  (let ((let232 (= let231 let152)))
  (let ((let233 mul_n15_alt))
  (let ((let234 (ff.add let60 let59 let57 let55 let64 let52 let233 let7 let51 let2)))
  (let ((let235 (ff.mul let3 let234)))
  (let ((let236 (= let235 let137)))
  (let ((let237 (ff.add let7 let205 let51 let30 let18)))
  (let ((let238 (ff.mul let3 let237)))
  (let ((let239 (= let238 let0)))
  (let ((let240 (ff.add let4 let44)))
  (let ((let241 is_zero_inv_n34_alt))
  (let ((let242 (ff.mul let241 let237)))
  (let ((let243 (= let242 let240)))
  (let ((let244 (ff.add let89 let44)))
  (let ((let245 (ff.mul let79 let35)))
  (let ((let246 (ff.add let245 let18)))
  (let ((let247 (ff.mul let246 let244)))
  (let ((let248 (= let247 let80)))
  (let ((let249 (ff.mul let66 let18)))
  (let ((let250 (ff.mul let64 let18)))
  (let ((let251 (ff.mul let62 let18)))
  (let ((let252 (ff.add let251 let250 let249 let35)))
  (let ((let253 (ff.mul let252 let230)))
  (let ((let254 (= let253 let71)))
  (let ((let255 (ff.add let65 let44)))
  (let ((let256 (ff.add let222 let18)))
  (let ((let257 (ff.mul let256 let255)))
  (let ((let258 (= let257 let66)))
  (let ((let259 (ff.add let37 let18)))
  (let ((let260 (ff.mul let259 let52)))
  (let ((let261 (= let260 let68)))
  (let ((let262 (ff.mul let208 let2)))
  (let ((let263 (ff.add let7 let262 let210)))
  (let ((let264 mul_n28_alt))
  (let ((let265 (ff.mul let264 let263)))
  (let ((let266 (= let265 let36)))
  (let ((let267 (ff.mul let62 let50)))
  (let ((let268 (= let267 let264)))
  (let ((let269 mul_n26_alt))
  (let ((let270 (ff.mul let269 let7)))
  (let ((let271 (= let270 let62)))
  (let ((let272 (ff.add let162 let52 let55)))
  (let ((let273 (ff.add let30 let44)))
  (let ((let274 (ff.mul let273 let272)))
  (let ((let275 (= let274 let269)))
  (let ((let276 (ff.add let7 let13 let30 let44)))
  (let ((let277 (ff.add let53 let91 let58 let89 let56 let50 let90)))
  (let ((let278 (ff.mul let277 let276)))
  (let ((let279 (= let278 let130)))
  (let ((let280 (ff.add let55 let60 let59 let52 let103 let57 let51 let44)))
  (let ((let281 d_n1_alt))
  (let ((let282 (ff.mul let281 let280)))
  (let ((let283 (= let282 let53)))
  (let ((let284 (ff.add let60 let52 let57 let55)))
  (let ((let285 (ff.mul let50 let35)))
  (let ((let286 (ff.add let285 let18)))
  (let ((let287 (ff.mul let286 let284)))
  (let ((let288 (= let287 let58)))
  (let ((let289 (ff.add let211 let44)))
  (let ((let290 (ff.mul let289 let64)))
  (let ((let291 (= let290 let50)))
  (let ((let292 (ff.mul let7 let18)))
  (let ((let293 (ff.mul let292 let273)))
  (let ((let294 (= let293 let12)))
  (let ((let295 (ff.mul let284 let289)))
  (let ((let296 (= let295 let29)))
  (let ((let297 (ff.mul let56 let199)))
  (let ((let298 (= let297 let22)))
  (let ((let299 (ff.add let162 let52 let55 let206)))
  (let ((let300 (ff.mul let79 let299)))
  (let ((let301 (= let300 let97)))
  (let ((let302 (as ff5 FF0)))
  (let ((let303 (ff.mul let233 let2)))
  (let ((let304 e_n0_alt))
  (let ((let305 (ff.mul let304 let2)))
  (let ((let306 (ff.add let305 let91 let303 let90 let88 let65 let89 let302)))
  (let ((let307 (ff.mul let79 let306)))
  (let ((let308 (= let307 let0)))
  (let ((let309 (ff.add let103 let44)))
  (let ((let310 is_zero_inv_n16_alt))
  (let ((let311 (ff.mul let310 let306)))
  (let ((let312 (= let311 let309)))
  (let ((let313 (ff.mul let115 let255)))
  (let ((let314 (= let313 let233)))
  (let ((let315 (ff.add let305 let44)))
  (let ((let316 (ff.add let88 let208 let211 let44)))
  (let ((let317 (ff.mul let316 let315)))
  (let ((let318 (= let317 let64)))
  (let ((let319 (ff.mul let292 let210)))
  (let ((let320 (= let319 let208)))
  (let ((let321 (ff.mul let204 let35)))
  (let ((let322 (ff.add let305 let89 let321 let221)))
  (let ((let323 (ff.mul let7 let322)))
  (let ((let324 (= let323 let0)))
  (let ((let325 (ff.add let88 let44)))
  (let ((let326 is_zero_inv_n11_alt))
  (let ((let327 (ff.mul let326 let322)))
  (let ((let328 (= let327 let325)))
  (let ((let329 (ff.add let89 let90 let56 let281)))
  (let ((let330 (ff.mul let281 let329)))
  (let ((let331 (= let330 let60)))
  (let ((let332 (ff.mul let52 let272)))
  (let ((let333 (= let332 let205)))
  (let ((let334 (ff.mul let55 let18)))
  (let ((let335 (ff.mul let56 let35)))
  (let ((let336 (ff.add let335 let160 let334)))
  (let ((let337 (ff.mul let336 let56)))
  (let ((let338 (= let337 let98)))
  (let ((let339 (ff.mul let136 let244)))
  (let ((let340 (= let339 let55)))
  (let ((let341 (and let340 let338 let333 let331 let328 let324 let320 let318 let314 let312 let308 let301 let298 let296 let294 let291 let288 let283 let279 let275 let271 let268 let266 let261 let258 let254 let248 let243 let239 let236 let232 let229 let219 let214 let203 let198 let196 let190 let187 let183 let180 let176 let173 let170 let166 let157 let148 let143 let129 let122 let117 let112 let108 let102 let94 let83 let78 let74 let49 let43)))
  (let ((let342 is_zero_n35))
  (let ((let343 (ff.mul let342 let2)))
  (let ((let344 mul_n44))
  (let ((let345 (ff.mul let344 let2)))
  (let ((let346 is_zero_n12))
  (let ((let347 is_zero_n47))
  (let ((let348 (ff.mul let347 let2)))
  (let ((let349 mul_n50))
  (let ((let350 (ff.mul let349 let2)))
  (let ((let351 mul_n21))
  (let ((let352 (ff.mul let351 let2)))
  (let ((let353 mul_n56))
  (let ((let354 (ff.mul let353 let2)))
  (let ((let355 mul_n59))
  (let ((let356 (ff.mul let355 let2)))
  (let ((let357 mul_n62))
  (let ((let358 (ff.mul let357 let18)))
  (let ((let359 mul_n42))
  (let ((let360 mul_n19))
  (let ((let361 is_zero_n54))
  (let ((let362 mul_n63))
  (let ((let363 (ff.mul let362 let2)))
  (let ((let364 mul_n43))
  (let ((let365 mul_n55))
  (let ((let366 (ff.mul let365 let2)))
  (let ((let367 mul_n20))
  (let ((let368 (ff.mul let367 let2)))
  (let ((let369 mul_n58))
  (let ((let370 (ff.mul let369 let2)))
  (let ((let371 mul_n61))
  (let ((let372 (ff.mul let371 let2)))
  (let ((let373 mul_n29))
  (let ((let374 (ff.mul let373 let35)))
  (let ((let375 mul_n64))
  (let ((let376 (ff.mul let375 let2)))
  (let ((let377 (ff.add let376 let374 let372 let370 let368 let366 let364 let363 let361 let360 let359 let358 let356 let354 let352 let350 let348 let346 let345 let343 let1)))
  (let ((let378 return_n3))
  (let ((let379 (ff.mul let378 let377)))
  (let ((let380 (= let379 let0)))
  (let ((let381 (ff.mul let378 let2)))
  (let ((let382 (ff.add let381 let44)))
  (let ((let383 is_zero_inv_n65))
  (let ((let384 (ff.mul let383 let377)))
  (let ((let385 (= let384 let382)))
  (let ((let386 mul_n22))
  (let ((let387 (ff.mul let386 let2)))
  (let ((let388 c_n2))
  (let ((let389 mul_n24))
  (let ((let390 (ff.mul let389 let2)))
  (let ((let391 mul_n7))
  (let ((let392 f_n4))
  (let ((let393 (ff.mul let392 let2)))
  (let ((let394 mul_n23))
  (let ((let395 (ff.mul let394 let2)))
  (let ((let396 mul_n10))
  (let ((let397 (ff.add let396 let395 let393 let391 let390 let388 let387 let343 let44)))
  (let ((let398 mul_n27))
  (let ((let399 (ff.mul let398 let2)))
  (let ((let400 mul_n14))
  (let ((let401 (ff.mul let400 let2)))
  (let ((let402 mul_n31))
  (let ((let403 (ff.mul let402 let2)))
  (let ((let404 mul_n30))
  (let ((let405 (ff.mul let404 let2)))
  (let ((let406 (ff.mul let373 let2)))
  (let ((let407 mul_n32))
  (let ((let408 (ff.add let407 let406 let405 let403 let388 let401 let399 let18)))
  (let ((let409 (ff.mul let408 let397)))
  (let ((let410 (= let409 let375)))
  (let ((let411 (ff.add let406 let357 let44)))
  (let ((let412 (ff.add let374 let358 let18)))
  (let ((let413 (ff.mul let412 let411)))
  (let ((let414 (= let413 let362)))
  (let ((let415 is_zero_n17))
  (let ((let416 mul_n33))
  (let ((let417 (ff.add let373 let388 let416 let415 let35)))
  (let ((let418 (ff.mul let408 let417)))
  (let ((let419 (= let418 let357)))
  (let ((let420 (ff.add let406 let388 let352 let346 let368 let405 let44)))
  (let ((let421 mul_n57))
  (let ((let422 (ff.mul let421 let2)))
  (let ((let423 mul_n60))
  (let ((let424 (ff.mul let346 let2)))
  (let ((let425 (ff.mul let388 let2)))
  (let ((let426 (ff.mul let391 let2)))
  (let ((let427 (ff.mul let396 let2)))
  (let ((let428 (ff.add let427 let394 let392 let426 let425 let424 let423 let422 let386 let44)))
  (let ((let429 (ff.mul let428 let420)))
  (let ((let430 (= let429 let371)))
  (let ((let431 (ff.add let406 let396 let395 let393 let391 let388 let346 let421 let387)))
  (let ((let432 mul_n41))
  (let ((let433 mul_n18))
  (let ((let434 mul_n8))
  (let ((let435 is_zero_n40))
  (let ((let436 (ff.add let435 let434 let433 let425 let426 let432)))
  (let ((let437 (ff.mul let436 let431)))
  (let ((let438 (= let437 let423)))
  (let ((let439 (ff.mul let415 let2)))
  (let ((let440 (ff.mul let416 let2)))
  (let ((let441 (ff.add let440 let439 let425 let18)))
  (let ((let442 (ff.add let398 let400 let402 let2)))
  (let ((let443 (ff.mul let442 let441)))
  (let ((let444 (= let443 let355)))
  (let ((let445 (ff.add let390 let396 let395 let388 let393 let387 let391 let44)))
  (let ((let446 (ff.add let427 let394 let392 let426 let425 let424 let422 let386 let44)))
  (let ((let447 (ff.mul let446 let445)))
  (let ((let448 (= let447 let369)))
  (let ((let449 (ff.add let427 let394 let425 let392 let386 let426)))
  (let ((let450 (ff.mul let346 let35)))
  (let ((let451 (ff.add let450 let18)))
  (let ((let452 (ff.mul let451 let449)))
  (let ((let453 (= let452 let421)))
  (let ((let454 (ff.add let348 let44)))
  (let ((let455 (ff.mul let365 let35)))
  (let ((let456 (ff.add let455 let18)))
  (let ((let457 (ff.mul let456 let454)))
  (let ((let458 (= let457 let353)))
  (let ((let459 mul_n48))
  (let ((let460 (ff.mul let459 let2)))
  (let ((let461 (ff.add let460 let425 let386 let44)))
  (let ((let462 (ff.mul let359 let2)))
  (let ((let463 (ff.add let462 let44)))
  (let ((let464 (ff.mul let463 let461)))
  (let ((let465 (= let464 let365)))
  (let ((let466 mul_n25))
  (let ((let467 (ff.mul let466 let2)))
  (let ((let468 (ff.mul let386 let132)))
  (let ((let469 (ff.mul let388 let35)))
  (let ((let470 mul_n52))
  (let ((let471 (ff.mul let392 let18)))
  (let ((let472 mul_n36))
  (let ((let473 (ff.mul let394 let18)))
  (let ((let474 (ff.mul let391 let35)))
  (let ((let475 (ff.mul let396 let35)))
  (let ((let476 (ff.add let475 let474 let473 let472 let471 let470 let389 let469 let348 let435 let432 let468 let467 let18)))
  (let ((let477 (ff.mul let361 let476)))
  (let ((let478 (= let477 let0)))
  (let ((let479 (ff.mul let361 let2)))
  (let ((let480 (ff.add let479 let44)))
  (let ((let481 is_zero_inv_n53))
  (let ((let482 (ff.mul let481 let476)))
  (let ((let483 (= let482 let480)))
  (let ((let484 mul_n51))
  (let ((let485 mul_n38))
  (let ((let486 mul_n37))
  (let ((let487 (ff.mul let407 let2)))
  (let ((let488 (ff.add let487 let373 let400 let404 let398 let486 let425 let402 let347 let485 let484 let149)))
  (let ((let489 (ff.add let487 let373 let400 let404 let398 let486 let425 let402 let485 let484 let35)))
  (let ((let490 (ff.mul let489 let488)))
  (let ((let491 (= let490 let470)))
  (let ((let492 (ff.mul let485 let2)))
  (let ((let493 (ff.mul let486 let2)))
  (let ((let494 (ff.mul let388 let18)))
  (let ((let495 (ff.mul let433 let2)))
  (let ((let496 (ff.mul let434 let2)))
  (let ((let497 (ff.add let407 let406 let391 let401 let405 let496 let399 let495 let494 let493 let403 let492 let18)))
  (let ((let498 (ff.add let350 let44)))
  (let ((let499 (ff.mul let498 let497)))
  (let ((let500 (= let499 let484)))
  (let ((let501 (ff.add let424 let351 let367)))
  (let ((let502 mul_n49))
  (let ((let503 (ff.mul let502 let501)))
  (let ((let504 (= let503 let349)))
  (let ((let505 (ff.add let406 let405 let388 let44)))
  (let ((let506 (ff.mul let461 let505)))
  (let ((let507 (= let506 let502)))
  (let ((let508 (ff.add let469 let18)))
  (let ((let509 (ff.mul let508 let386)))
  (let ((let510 (= let509 let459)))
  (let ((let511 mul_n45))
  (let ((let512 (ff.add let373 let511 let396 let368 let395 let404 let399 let390 let393 let391 let387 let342 let132)))
  (let ((let513 (ff.mul let347 let512)))
  (let ((let514 (= let513 let0)))
  (let ((let515 is_zero_inv_n46))
  (let ((let516 (ff.mul let515 let512)))
  (let ((let517 (= let516 let454)))
  (let ((let518 (ff.add let373 let425 let404 let343)))
  (let ((let519 (ff.add let393 let388 let391)))
  (let ((let520 (ff.mul let519 let518)))
  (let ((let521 (= let520 let511)))
  (let ((let522 (ff.add let434 let433 let425 let426 let44)))
  (let ((let523 (ff.mul let522 let367)))
  (let ((let524 (= let523 let344)))
  (let ((let525 (ff.mul let360 let2)))
  (let ((let526 (ff.add let525 let44)))
  (let ((let527 (ff.mul let359 let35)))
  (let ((let528 (ff.add let527 let18)))
  (let ((let529 (ff.mul let528 let526)))
  (let ((let530 (= let529 let364)))
  (let ((let531 (ff.mul let436 let415)))
  (let ((let532 (= let531 let359)))
  (let ((let533 (ff.add let496 let495 let388 let391)))
  (let ((let534 (ff.mul let435 let35)))
  (let ((let535 (ff.add let534 let18)))
  (let ((let536 (ff.mul let535 let533)))
  (let ((let537 (= let536 let432)))
  (let ((let538 a_n6))
  (let ((let539 mul_n9))
  (let ((let540 (ff.mul let539 let2)))
  (let ((let541 (ff.mul let472 let18)))
  (let ((let542 mul_n13))
  (let ((let543 (ff.mul let386 let18)))
  (let ((let544 b_n5))
  (let ((let545 (ff.mul let544 let2)))
  (let ((let546 (ff.add let406 let473 let368 let415 let400 let486 let402 let545 let467 let543 let542 let475 let474 let541 let471 let416 let398 let405 let352 let346 let540 let485 let538 let132)))
  (let ((let547 (ff.mul let435 let546)))
  (let ((let548 (= let547 let0)))
  (let ((let549 (ff.mul let435 let2)))
  (let ((let550 (ff.add let549 let44)))
  (let ((let551 is_zero_inv_n39))
  (let ((let552 (ff.mul let551 let546)))
  (let ((let553 (= let552 let550)))
  (let ((let554 (ff.add let493 let44)))
  (let ((let555 (ff.mul let398 let35)))
  (let ((let556 (ff.mul let400 let35)))
  (let ((let557 (ff.mul let402 let35)))
  (let ((let558 (ff.mul let404 let35)))
  (let ((let559 (ff.mul let407 let18)))
  (let ((let560 (ff.add let559 let374 let558 let557 let494 let556 let555 let221)))
  (let ((let561 (ff.mul let560 let554)))
  (let ((let562 (= let561 let485)))
  (let ((let563 (ff.add let373 let404 let425)))
  (let ((let564 (ff.mul let563 let466)))
  (let ((let565 (= let564 let486)))
  (let ((let566 mul_n15))
  (let ((let567 (ff.add let396 let395 let393 let391 let400 let388 let566 let346 let387 let2)))
  (let ((let568 (ff.mul let342 let567)))
  (let ((let569 (= let568 let472)))
  (let ((let570 (ff.add let346 let539 let387 let368 let18)))
  (let ((let571 (ff.mul let342 let570)))
  (let ((let572 (= let571 let0)))
  (let ((let573 (ff.add let343 let44)))
  (let ((let574 is_zero_inv_n34))
  (let ((let575 (ff.mul let574 let570)))
  (let ((let576 (= let575 let573)))
  (let ((let577 (ff.add let425 let44)))
  (let ((let578 (ff.mul let415 let35)))
  (let ((let579 (ff.add let578 let18)))
  (let ((let580 (ff.mul let579 let577)))
  (let ((let581 (= let580 let416)))
  (let ((let582 (ff.mul let402 let18)))
  (let ((let583 (ff.mul let400 let18)))
  (let ((let584 (ff.mul let398 let18)))
  (let ((let585 (ff.add let584 let583 let582 let35)))
  (let ((let586 (ff.mul let585 let563)))
  (let ((let587 (= let586 let407)))
  (let ((let588 (ff.add let401 let44)))
  (let ((let589 (ff.add let555 let18)))
  (let ((let590 (ff.mul let589 let588)))
  (let ((let591 (= let590 let402)))
  (let ((let592 (ff.add let374 let18)))
  (let ((let593 (ff.mul let592 let388)))
  (let ((let594 (= let593 let404)))
  (let ((let595 (ff.mul let542 let2)))
  (let ((let596 (ff.add let346 let595 let544)))
  (let ((let597 mul_n28))
  (let ((let598 (ff.mul let597 let596)))
  (let ((let599 (= let598 let373)))
  (let ((let600 (ff.mul let398 let386)))
  (let ((let601 (= let600 let597)))
  (let ((let602 mul_n26))
  (let ((let603 (ff.mul let602 let346)))
  (let ((let604 (= let603 let398)))
  (let ((let605 (ff.add let496 let388 let391)))
  (let ((let606 (ff.add let368 let44)))
  (let ((let607 (ff.mul let606 let605)))
  (let ((let608 (= let607 let602)))
  (let ((let609 (ff.add let346 let352 let368 let44)))
  (let ((let610 (ff.add let389 let427 let394 let425 let392 let386 let426)))
  (let ((let611 (ff.mul let610 let609)))
  (let ((let612 (= let611 let466)))
  (let ((let613 (ff.add let391 let396 let395 let388 let439 let393 let387 let44)))
  (let ((let614 d_n1))
  (let ((let615 (ff.mul let614 let613)))
  (let ((let616 (= let615 let389)))
  (let ((let617 (ff.add let396 let388 let393 let391)))
  (let ((let618 (ff.mul let386 let35)))
  (let ((let619 (ff.add let618 let18)))
  (let ((let620 (ff.mul let619 let617)))
  (let ((let621 (= let620 let394)))
  (let ((let622 (ff.add let545 let44)))
  (let ((let623 (ff.mul let622 let400)))
  (let ((let624 (= let623 let386)))
  (let ((let625 (ff.mul let346 let18)))
  (let ((let626 (ff.mul let625 let606)))
  (let ((let627 (= let626 let351)))
  (let ((let628 (ff.mul let617 let622)))
  (let ((let629 (= let628 let367)))
  (let ((let630 (ff.mul let392 let533)))
  (let ((let631 (= let630 let360)))
  (let ((let632 (ff.add let496 let388 let391 let540)))
  (let ((let633 (ff.mul let415 let632)))
  (let ((let634 (= let633 let433)))
  (let ((let635 (ff.mul let566 let2)))
  (let ((let636 e_n0))
  (let ((let637 (ff.mul let636 let2)))
  (let ((let638 (ff.add let637 let427 let635 let426 let424 let401 let425 let302)))
  (let ((let639 (ff.mul let415 let638)))
  (let ((let640 (= let639 let0)))
  (let ((let641 (ff.add let439 let44)))
  (let ((let642 is_zero_inv_n16))
  (let ((let643 (ff.mul let642 let638)))
  (let ((let644 (= let643 let641)))
  (let ((let645 (ff.mul let451 let588)))
  (let ((let646 (= let645 let566)))
  (let ((let647 (ff.add let637 let44)))
  (let ((let648 (ff.add let424 let542 let545 let44)))
  (let ((let649 (ff.mul let648 let647)))
  (let ((let650 (= let649 let400)))
  (let ((let651 (ff.mul let625 let544)))
  (let ((let652 (= let651 let542)))
  (let ((let653 (ff.mul let538 let35)))
  (let ((let654 (ff.add let637 let425 let653 let221)))
  (let ((let655 (ff.mul let346 let654)))
  (let ((let656 (= let655 let0)))
  (let ((let657 (ff.add let424 let44)))
  (let ((let658 is_zero_inv_n11))
  (let ((let659 (ff.mul let658 let654)))
  (let ((let660 (= let659 let657)))
  (let ((let661 (ff.add let425 let426 let392 let614)))
  (let ((let662 (ff.mul let614 let661)))
  (let ((let663 (= let662 let396)))
  (let ((let664 (ff.mul let388 let605)))
  (let ((let665 (= let664 let539)))
  (let ((let666 (ff.mul let391 let18)))
  (let ((let667 (ff.mul let392 let35)))
  (let ((let668 (ff.add let667 let494 let666)))
  (let ((let669 (ff.mul let668 let392)))
  (let ((let670 (= let669 let434)))
  (let ((let671 (ff.mul let471 let577)))
  (let ((let672 (= let671 let391)))
  (let ((let673 (and let672 let670 let665 let663 let660 let656 let652 let650 let646 let644 let640 let634 let631 let629 let627 let624 let621 let616 let612 let608 let604 let601 let599 let594 let591 let587 let581 let576 let572 let569 let565 let562 let553 let548 let537 let532 let530 let524 let521 let517 let514 let510 let507 let504 let500 let491 let483 let478 let465 let458 let453 let448 let444 let438 let430 let419 let414 let410 let385 let380)))
  (let ((let674 (= let378 let41)))
  (let ((let675 (not let674)))
  (let ((let676 (= let636 let304)))
  (let ((let677 (= let544 let210)))
  (let ((let678 (= let392 let56)))
  (let ((let679 (= let388 let52)))
  (let ((let680 (= let538 let204)))
  (let ((let681 (= let614 let281)))
  (let ((let682 (and let681 let680 let679 let678 let677 let676)))
  (let ((let683 (and let682 let675 let673 let341)))
  let683
))))))))))))))))))))))))))))))))))))))))))))))))))))))))))))))))))))))))))))))))))))))))))))))))))))))))))))))))))))))))))))))))))))))))))))))))))))))))))))))))))))))))))))))))))))))))))))))))))))))))))))))))))))))))))))))))))))))))))))))))))))))))))))))))))))))))))))))))))))))))))))))))))))))))))))))))))))))))))))))))))))))))))))))))))))))))))))))))))))))))))))))))))))))))))))))))))))))))))))))))))))))))))))))))))))))))))))))))))))))))))))))))))))))))))))))))))))))))))))))))))))))))))))))))))))))))))))))))))))))))))))))))))))))))))))))))))))))))))))))))))))))))))))))))))))))))))))))))))))))))))))))))))))))))))))))))))))))))))))))))))))))))))))))))))))))))))))))))))))))))))))
)
(check-sat)
